Route #1: 1 1 36 23 30 17 10 39 2 1 
Route #2: 1 9 13 15 32 37 7 34 18 38 20 16 1 
Route #3: 1 44 14 27 3 31 35 22 12 1 
Route #4: 1 42 40 5 8 33 26 25 4 43 1 
Route #5: 1 28 41 6 21 29 19 11 24 1 

Cost 1102.03
Time 0.3150


 * Another infos *

 Iterations: 45 Time: 0.3150 sec - 0.0052 min - 0.0001 horas
0.0000 h 0.0052 min
Problem dimension: 45
